data/mip_solutions/furman_sahinidis/transshipment/10sp1_cplex.sol
Elapsed time: 0.0459179878235
Nodes explored: 0
Upper bound: 10.0
Lower bound: 10.0
y[0,3]=1
y[1,2]=1
y[1,3]=1
y[2,0]=1
y[2,2]=1
y[2,4]=1
y[3,1]=1
y[3,3]=1
y[4,4]=1
y[4,5]=1
q[0,3,4]=1166900.0
q[0,3,5]=666800.0
q[0,3,6]=166700.0
q[1,2,3]=1120000.0
q[1,2,4]=1120000.0
q[1,2,5]=640000.0
q[1,2,7]=292485.0
q[1,2,8]=292485.0
q[1,3,4]=46530.0
q[1,3,6]=488500.0
q[2,0,3]=144500.0
q[2,0,4]=1011500.0
q[2,0,5]=578000.0
q[2,0,6]=289000.0
q[2,0,7]=578000.0
q[2,2,2]=800000.0
q[2,2,6]=320000.0
q[2,2,7]=347515.0
q[2,2,8]=347515.0
q[2,4,2]=527000.0
q[2,4,3]=1844500.0
q[2,4,4]=278470.0
q[2,4,5]=1054000.0
q[3,1,1]=11530.0
q[3,1,2]=576500.0
q[3,1,3]=807100.0
q[3,1,4]=807100.0
q[3,3,3]=1310400.0
q[3,3,4]=1079770.0
q[3,3,5]=643600.0
q[4,4,4]=1566030.0
q[4,5,8]=6497970.0
r[1,2]=800000.0
r[1,3]=1800000.0
r[1,4]=2080000.0
r[1,5]=1713470.0
r[1,6]=1073470.0
r[1,7]=584970.0
r[1,8]=292485.0
r[2,3]=73000.0
r[2,4]=44000.0
r[2,5]=714030.0
r[2,6]=202030.0
r[2,7]=153030.0
r[2,8]=347515.0
r[3,1]=952000.0
r[3,2]=1892470.0
r[3,3]=2505970.0
r[3,4]=2054470.0
r[3,5]=643600.0
r[4,4]=2352000.0
r[4,5]=3137970.0
r[4,6]=4481970.0
r[4,7]=5153970.0
r[4,8]=6497970.0
