data/mip_solutions/furman_sahinidis/transshipment/10sp1_cplex.log

Log started (V12.6.3.0) Tue Jun  6 12:38:51 2017

New value for default parallel thread count: 1

Problem '/tmp/tmpBYAQ9n.pyomo.lp' read.
Read time = 0.00 sec. (0.03 ticks)

Problem name         : /tmp/tmpBYAQ9n.pyomo.lp
Objective sense      : Minimize
Variables            :     352  [Nneg: 321,  Binary: 30,  General Integer: 1]
Objective nonzeros   :       1
Linear constraints   :     133  [Less: 30,  Equal: 103]
  Nonzeros           :     972
  RHS nonzeros       :      49

Variables            : Min LB: 0.000000         Max UB: 1.000000       
Objective nonzeros   : Min   : 1.000000         Max   : 1.000000       
Linear constraints   :
  Nonzeros           : Min   : 1.000000         Max   : 6497970.       
  RHS nonzeros       : Min   : 1.000000         Max   : 6497970.       
Tried aggregator 2 times.
MIP Presolve eliminated 43 rows and 181 columns.
Aggregator did 17 substitutions.
Reduced MIP has 73 rows, 154 columns, and 389 nonzeros.
Reduced MIP has 30 binaries, 0 generals, 0 SOSs, and 0 indicators.
Presolve time = 0.00 sec. (0.39 ticks)
Found incumbent of value 30.000000 after 0.00 sec. (0.80 ticks)
Probing time = 0.00 sec. (0.02 ticks)
Tried aggregator 1 time.
MIP Presolve eliminated 2 rows and 5 columns.
MIP Presolve added 2 rows and 0 columns.
Reduced MIP has 73 rows, 149 columns, and 375 nonzeros.
Reduced MIP has 30 binaries, 0 generals, 0 SOSs, and 0 indicators.
Presolve time = 0.00 sec. (0.20 ticks)
Probing time = 0.00 sec. (0.02 ticks)
Clique table members: 5.
MIP emphasis: balance optimality and feasibility.
MIP search method: dynamic search.
Parallel mode: none, using 1 thread.
Root relaxation solution time = 0.00 sec. (0.25 ticks)

        Nodes                                         Cuts/
   Node  Left     Objective  IInf  Best Integer    Best Bound    ItCnt     Gap

*     0+    0                           30.0000        0.0000           100.00%
      0     0        7.2376    19       30.0000        7.2376       30   75.87%
*     0+    0                           20.0000        7.2376            63.81%
      0     0        8.5728    19       20.0000      Cuts: 52      132   57.14%
      0     0        7.3135     9       20.0000      Cuts: 55      219   57.14%
*     0+    0                           12.0000        8.5728            28.56%
      0     0        9.2791    10       12.0000      Cuts: 32      263   22.67%
      0     0        8.0666    22       12.0000      Cuts: 11      442   22.67%
      0     0        7.4909    10       12.0000      Cuts: 61      620   22.67%
      0     0        8.7381     8       12.0000      Cuts: 34      645   22.67%
      0     0        9.3036     8       12.0000      Cuts: 12      655   22.47%
      0     0       10.0024     9       12.0000      Cuts: 11      664   16.65%
      0     0       10.4783     8       12.0000      Cuts: 13      668   12.68%
*     0+    0                           10.0000       10.4783            -4.78%
      0     0        cutoff             10.0000       10.4783      668   -4.78%
Elapsed time = 0.02 sec. (18.52 ticks, tree = 0.01 MB, solutions = 4)

Cover cuts applied:  4
Implied bound cuts applied:  20
Flow cuts applied:  14
Mixed integer rounding cuts applied:  1

Root node processing (before b&c):
  Real time             =    0.02 sec. (18.54 ticks)
Sequential b&c:
  Real time             =    0.00 sec. (0.00 ticks)
                          ------------
Total (root+branch&cut) =    0.02 sec. (18.54 ticks)

Solution pool: 4 solutions saved.

MIP - Integer optimal solution:  Objective =  1.0000000000e+01
Solution time =    0.02 sec.  Iterations = 668  Nodes = 0
Deterministic time = 18.54 ticks  (863.71 ticks/sec)


Incumbent solution written to file '/tmp/tmpdePTRq.cplex.sol'.

Log started (V12.6.3.0) Mon Jul 24 16:43:31 2017

New value for default parallel thread count: 1

Problem '/tmp/tmpzSOYrW.pyomo.lp' read.
Read time = 0.00 sec. (0.03 ticks)

Problem name         : /tmp/tmpzSOYrW.pyomo.lp
Objective sense      : Minimize
Variables            :     352  [Nneg: 321,  Binary: 30,  General Integer: 1]
Objective nonzeros   :       1
Linear constraints   :     133  [Less: 30,  Equal: 103]
  Nonzeros           :     972
  RHS nonzeros       :      49

Variables            : Min LB: 0.000000         Max UB: 1.000000       
Objective nonzeros   : Min   : 1.000000         Max   : 1.000000       
Linear constraints   :
  Nonzeros           : Min   : 1.000000         Max   : 6497970.       
  RHS nonzeros       : Min   : 1.000000         Max   : 6497970.       
Tried aggregator 2 times.
MIP Presolve eliminated 43 rows and 181 columns.
Aggregator did 17 substitutions.
Reduced MIP has 73 rows, 154 columns, and 389 nonzeros.
Reduced MIP has 30 binaries, 0 generals, 0 SOSs, and 0 indicators.
Presolve time = 0.00 sec. (0.39 ticks)
Found incumbent of value 30.000000 after 0.00 sec. (0.80 ticks)
Probing time = 0.00 sec. (0.02 ticks)
Tried aggregator 1 time.
MIP Presolve eliminated 2 rows and 5 columns.
MIP Presolve added 2 rows and 0 columns.
Reduced MIP has 73 rows, 149 columns, and 375 nonzeros.
Reduced MIP has 30 binaries, 0 generals, 0 SOSs, and 0 indicators.
Presolve time = 0.00 sec. (0.20 ticks)
Probing time = 0.00 sec. (0.02 ticks)
Clique table members: 5.
MIP emphasis: balance optimality and feasibility.
MIP search method: dynamic search.
Parallel mode: none, using 1 thread.
Root relaxation solution time = 0.00 sec. (0.25 ticks)

        Nodes                                         Cuts/
   Node  Left     Objective  IInf  Best Integer    Best Bound    ItCnt     Gap

*     0+    0                           30.0000        0.0000           100.00%
      0     0        7.2376    19       30.0000        7.2376       30   75.87%
*     0+    0                           20.0000        7.2376            63.81%
      0     0        8.5728    19       20.0000      Cuts: 52      132   57.14%
      0     0        7.3135     9       20.0000      Cuts: 55      219   57.14%
*     0+    0                           12.0000        8.5728            28.56%
      0     0        9.2791    10       12.0000      Cuts: 32      263   22.67%
      0     0        8.0666    22       12.0000      Cuts: 11      442   22.67%
      0     0        7.4909    10       12.0000      Cuts: 61      620   22.67%
      0     0        8.7381     8       12.0000      Cuts: 34      645   22.67%
      0     0        9.3036     8       12.0000      Cuts: 12      655   22.47%
      0     0       10.0024     9       12.0000      Cuts: 11      664   16.65%
      0     0       10.4783     8       12.0000      Cuts: 13      668   12.68%
*     0+    0                           10.0000       10.4783            -4.78%
      0     0        cutoff             10.0000       10.4783      668   -4.78%
Elapsed time = 0.02 sec. (18.52 ticks, tree = 0.01 MB, solutions = 4)

Cover cuts applied:  4
Implied bound cuts applied:  20
Flow cuts applied:  14
Mixed integer rounding cuts applied:  1

Root node processing (before b&c):
  Real time             =    0.02 sec. (18.54 ticks)
Sequential b&c:
  Real time             =    0.00 sec. (0.00 ticks)
                          ------------
Total (root+branch&cut) =    0.02 sec. (18.54 ticks)

Solution pool: 4 solutions saved.

MIP - Integer optimal solution:  Objective =  1.0000000000e+01
Solution time =    0.02 sec.  Iterations = 668  Nodes = 0
Deterministic time = 18.54 ticks  (851.19 ticks/sec)


Incumbent solution written to file '/tmp/tmp72kcz4.cplex.sol'.

Log started (V12.6.3.0) Mon Jul 24 16:45:09 2017

New value for default parallel thread count: 1

Problem '/tmp/tmpj0MD0B.pyomo.lp' read.
Read time = 0.00 sec. (0.03 ticks)

Problem name         : /tmp/tmpj0MD0B.pyomo.lp
Objective sense      : Minimize
Variables            :     352  [Nneg: 321,  Binary: 30,  General Integer: 1]
Objective nonzeros   :       1
Linear constraints   :     133  [Less: 30,  Equal: 103]
  Nonzeros           :     972
  RHS nonzeros       :      49

Variables            : Min LB: 0.000000         Max UB: 1.000000       
Objective nonzeros   : Min   : 1.000000         Max   : 1.000000       
Linear constraints   :
  Nonzeros           : Min   : 1.000000         Max   : 6497970.       
  RHS nonzeros       : Min   : 1.000000         Max   : 6497970.       
Tried aggregator 2 times.
MIP Presolve eliminated 43 rows and 181 columns.
Aggregator did 17 substitutions.
Reduced MIP has 73 rows, 154 columns, and 389 nonzeros.
Reduced MIP has 30 binaries, 0 generals, 0 SOSs, and 0 indicators.
Presolve time = 0.00 sec. (0.39 ticks)
Found incumbent of value 30.000000 after 0.00 sec. (0.80 ticks)
Probing time = 0.00 sec. (0.02 ticks)
Tried aggregator 1 time.
MIP Presolve eliminated 2 rows and 5 columns.
MIP Presolve added 2 rows and 0 columns.
Reduced MIP has 73 rows, 149 columns, and 375 nonzeros.
Reduced MIP has 30 binaries, 0 generals, 0 SOSs, and 0 indicators.
Presolve time = 0.00 sec. (0.20 ticks)
Probing time = 0.00 sec. (0.02 ticks)
Clique table members: 5.
MIP emphasis: balance optimality and feasibility.
MIP search method: dynamic search.
Parallel mode: none, using 1 thread.
Root relaxation solution time = 0.00 sec. (0.25 ticks)

        Nodes                                         Cuts/
   Node  Left     Objective  IInf  Best Integer    Best Bound    ItCnt     Gap

*     0+    0                           30.0000        0.0000           100.00%
      0     0        7.2376    19       30.0000        7.2376       30   75.87%
*     0+    0                           20.0000        7.2376            63.81%
      0     0        8.5728    19       20.0000      Cuts: 52      132   57.14%
      0     0        7.3135     9       20.0000      Cuts: 55      219   57.14%
*     0+    0                           12.0000        8.5728            28.56%
      0     0        9.2791    10       12.0000      Cuts: 32      263   22.67%
      0     0        8.0666    22       12.0000      Cuts: 11      442   22.67%
      0     0        7.4909    10       12.0000      Cuts: 61      620   22.67%
      0     0        8.7381     8       12.0000      Cuts: 34      645   22.67%
      0     0        9.3036     8       12.0000      Cuts: 12      655   22.47%
      0     0       10.0024     9       12.0000      Cuts: 11      664   16.65%
      0     0       10.4783     8       12.0000      Cuts: 13      668   12.68%
*     0+    0                           10.0000       10.4783            -4.78%
      0     0        cutoff             10.0000       10.4783      668   -4.78%
Elapsed time = 0.02 sec. (18.52 ticks, tree = 0.01 MB, solutions = 4)

Cover cuts applied:  4
Implied bound cuts applied:  20
Flow cuts applied:  14
Mixed integer rounding cuts applied:  1

Root node processing (before b&c):
  Real time             =    0.02 sec. (18.54 ticks)
Sequential b&c:
  Real time             =    0.00 sec. (0.00 ticks)
                          ------------
Total (root+branch&cut) =    0.02 sec. (18.54 ticks)

Solution pool: 4 solutions saved.

MIP - Integer optimal solution:  Objective =  1.0000000000e+01
Solution time =    0.02 sec.  Iterations = 668  Nodes = 0
Deterministic time = 18.54 ticks  (849.54 ticks/sec)


Incumbent solution written to file '/tmp/tmpdQby0Y.cplex.sol'.

Log started (V12.6.3.0) Mon Jul 24 16:57:53 2017

New value for default parallel thread count: 1

Problem '/tmp/tmpjT_cXn.pyomo.lp' read.
Read time = 0.00 sec. (0.03 ticks)

Problem name         : /tmp/tmpjT_cXn.pyomo.lp
Objective sense      : Minimize
Variables            :     352  [Nneg: 321,  Binary: 30,  General Integer: 1]
Objective nonzeros   :       1
Linear constraints   :     133  [Less: 30,  Equal: 103]
  Nonzeros           :     972
  RHS nonzeros       :      49

Variables            : Min LB: 0.000000         Max UB: 1.000000       
Objective nonzeros   : Min   : 1.000000         Max   : 1.000000       
Linear constraints   :
  Nonzeros           : Min   : 1.000000         Max   : 6497970.       
  RHS nonzeros       : Min   : 1.000000         Max   : 6497970.       
Tried aggregator 2 times.
MIP Presolve eliminated 43 rows and 181 columns.
Aggregator did 17 substitutions.
Reduced MIP has 73 rows, 154 columns, and 389 nonzeros.
Reduced MIP has 30 binaries, 0 generals, 0 SOSs, and 0 indicators.
Presolve time = 0.00 sec. (0.39 ticks)
Found incumbent of value 30.000000 after 0.00 sec. (0.80 ticks)
Probing time = 0.00 sec. (0.02 ticks)
Tried aggregator 1 time.
MIP Presolve eliminated 2 rows and 5 columns.
MIP Presolve added 2 rows and 0 columns.
Reduced MIP has 73 rows, 149 columns, and 375 nonzeros.
Reduced MIP has 30 binaries, 0 generals, 0 SOSs, and 0 indicators.
Presolve time = 0.00 sec. (0.20 ticks)
Probing time = 0.00 sec. (0.02 ticks)
Clique table members: 5.
MIP emphasis: balance optimality and feasibility.
MIP search method: dynamic search.
Parallel mode: none, using 1 thread.
Root relaxation solution time = 0.00 sec. (0.25 ticks)

        Nodes                                         Cuts/
   Node  Left     Objective  IInf  Best Integer    Best Bound    ItCnt     Gap

*     0+    0                           30.0000        0.0000           100.00%
      0     0        7.2376    19       30.0000        7.2376       30   75.87%
*     0+    0                           20.0000        7.2376            63.81%
      0     0        8.5728    19       20.0000      Cuts: 52      132   57.14%
      0     0        7.3135     9       20.0000      Cuts: 55      219   57.14%
*     0+    0                           12.0000        8.5728            28.56%
      0     0        9.2791    10       12.0000      Cuts: 32      263   22.67%
      0     0        8.0666    22       12.0000      Cuts: 11      442   22.67%
      0     0        7.4909    10       12.0000      Cuts: 61      620   22.67%
      0     0        8.7381     8       12.0000      Cuts: 34      645   22.67%
      0     0        9.3036     8       12.0000      Cuts: 12      655   22.47%
      0     0       10.0024     9       12.0000      Cuts: 11      664   16.65%
      0     0       10.4783     8       12.0000      Cuts: 13      668   12.68%
*     0+    0                           10.0000       10.4783            -4.78%
      0     0        cutoff             10.0000       10.4783      668   -4.78%
Elapsed time = 0.02 sec. (18.52 ticks, tree = 0.01 MB, solutions = 4)

Cover cuts applied:  4
Implied bound cuts applied:  20
Flow cuts applied:  14
Mixed integer rounding cuts applied:  1

Root node processing (before b&c):
  Real time             =    0.02 sec. (18.54 ticks)
Sequential b&c:
  Real time             =    0.00 sec. (0.00 ticks)
                          ------------
Total (root+branch&cut) =    0.02 sec. (18.54 ticks)

Solution pool: 4 solutions saved.

MIP - Integer optimal solution:  Objective =  1.0000000000e+01
Solution time =    0.02 sec.  Iterations = 668  Nodes = 0
Deterministic time = 18.54 ticks  (831.56 ticks/sec)


Incumbent solution written to file '/tmp/tmpnilTZc.cplex.sol'.

Log started (V12.6.3.0) Wed Jul 26 11:54:44 2017

New value for default parallel thread count: 1

Problem '/tmp/tmp2AwVVu.pyomo.lp' read.
Read time = 0.00 sec. (0.03 ticks)

Problem name         : /tmp/tmp2AwVVu.pyomo.lp
Objective sense      : Minimize
Variables            :     352  [Nneg: 321,  Binary: 30,  General Integer: 1]
Objective nonzeros   :       1
Linear constraints   :     133  [Less: 30,  Equal: 103]
  Nonzeros           :     972
  RHS nonzeros       :      49

Variables            : Min LB: 0.000000         Max UB: 1.000000       
Objective nonzeros   : Min   : 1.000000         Max   : 1.000000       
Linear constraints   :
  Nonzeros           : Min   : 1.000000         Max   : 6497970.       
  RHS nonzeros       : Min   : 1.000000         Max   : 6497970.       
Tried aggregator 2 times.
MIP Presolve eliminated 43 rows and 181 columns.
Aggregator did 17 substitutions.
Reduced MIP has 73 rows, 154 columns, and 389 nonzeros.
Reduced MIP has 30 binaries, 0 generals, 0 SOSs, and 0 indicators.
Presolve time = 0.00 sec. (0.39 ticks)
Found incumbent of value 30.000000 after 0.00 sec. (0.80 ticks)
Probing time = 0.00 sec. (0.02 ticks)
Tried aggregator 1 time.
MIP Presolve eliminated 2 rows and 5 columns.
MIP Presolve added 2 rows and 0 columns.
Reduced MIP has 73 rows, 149 columns, and 375 nonzeros.
Reduced MIP has 30 binaries, 0 generals, 0 SOSs, and 0 indicators.
Presolve time = 0.00 sec. (0.20 ticks)
Probing time = 0.00 sec. (0.02 ticks)
Clique table members: 5.
MIP emphasis: balance optimality and feasibility.
MIP search method: dynamic search.
Parallel mode: none, using 1 thread.
Root relaxation solution time = 0.00 sec. (0.25 ticks)

        Nodes                                         Cuts/
   Node  Left     Objective  IInf  Best Integer    Best Bound    ItCnt     Gap

*     0+    0                           30.0000        0.0000           100.00%
      0     0        7.2376    19       30.0000        7.2376       30   75.87%
*     0+    0                           20.0000        7.2376            63.81%
      0     0        8.5728    19       20.0000      Cuts: 52      132   57.14%
      0     0        7.3135     9       20.0000      Cuts: 55      219   57.14%
*     0+    0                           12.0000        8.5728            28.56%
      0     0        9.2791    10       12.0000      Cuts: 32      263   22.67%
      0     0        8.0666    22       12.0000      Cuts: 11      442   22.67%
      0     0        7.4909    10       12.0000      Cuts: 61      620   22.67%
      0     0        8.7381     8       12.0000      Cuts: 34      645   22.67%
      0     0        9.3036     8       12.0000      Cuts: 12      655   22.47%
      0     0       10.0024     9       12.0000      Cuts: 11      664   16.65%
      0     0       10.4783     8       12.0000      Cuts: 13      668   12.68%
*     0+    0                           10.0000       10.4783            -4.78%
      0     0        cutoff             10.0000       10.4783      668   -4.78%
Elapsed time = 0.03 sec. (18.52 ticks, tree = 0.01 MB, solutions = 4)

Cover cuts applied:  4
Implied bound cuts applied:  20
Flow cuts applied:  14
Mixed integer rounding cuts applied:  1

Root node processing (before b&c):
  Real time             =    0.03 sec. (18.54 ticks)
Sequential b&c:
  Real time             =    0.00 sec. (0.00 ticks)
                          ------------
Total (root+branch&cut) =    0.03 sec. (18.54 ticks)

Solution pool: 4 solutions saved.

MIP - Integer optimal solution:  Objective =  1.0000000000e+01
Solution time =    0.03 sec.  Iterations = 668  Nodes = 0
Deterministic time = 18.54 ticks  (711.26 ticks/sec)


Incumbent solution written to file '/tmp/tmpCQacF1.cplex.sol'.
